(set-option :print-success false)
(set-logic QF_UF)
(declare-sort x82 0)
(declare-sort x34 0)
(declare-fun x124 (x34 x34) x34)
(declare-fun x127 () x34)
(declare-fun x108 () x34)
(declare-fun x71 () x34)
(declare-fun x140 (x34 x34) x34)
(declare-fun x40 () x34)
(declare-fun x134 () x34)
(assert (and (and (and (not (= x134 x127)) (and (not (= x71 x40)) (and (and (not (= x127 x71)) (and (and (and (not (= x108 x127)) (not (= x71 x108))) (not (= x108 x134))) (not (= x40 x108)))) (not (= x134 x71))))) (not (= x127 x40))) (not (= x40 x134))))
(assert (or (or (or (or (= x108 (x140 x108 (x140 x108 x108))) (= x71 (x140 x71 (x140 x71 x71)))) (= (x140 x127 (x140 x127 x127)) x127)) (= (x140 x134 (x140 x134 x134)) x134)) (= x40 (x140 x40 (x140 x40 x40)))))
(assert (let ((x70 (x140 x127 x71)) (x90 (x140 x134 x127)) (x111 (x140 x71 x127)) (x49 (x140 x134 x71)) (x66 (x140 x134 x40)) (x19 (x140 x108 x40)) (x72 (x140 x71 x40)) (x38 (x140 x127 x127)) (x8 (x140 x40 x108)) (x2 (x140 x127 x108)) (x158 (x140 x108 x134)) (x141 (x140 x127 x134)) (x157 (x140 x134 x134)) (x55 (x140 x40 x71)) (x23 (x140 x134 x108)) (x7 (x140 x40 x134)) (x45 (x140 x127 x40)) (x151 (x140 x108 x108)) (x123 (x140 x71 x108)) (x30 (x140 x71 x134)) (x54 (x140 x40 x127)) (x136 (x140 x108 x127)) (x139 (x140 x71 x71)) (x92 (x140 x108 x71)) (x103 (x140 x40 x40))) (and (and (and (and (and (and (and (and (or (or (or (= x151 x127) (or (= x151 x71) (= x151 x108))) (= x134 x151)) (= x151 x40)) (or (= x92 x40) (or (= x134 x92) (or (= x92 x127) (or (= x92 x108) (= x71 x92)))))) (or (or (or (= x136 x127) (or (= x136 x71) (= x108 x136))) (= x134 x136)) (= x40 x136))) (or (or (or (= x127 x158) (or (= x158 x108) (= x158 x71))) (= x158 x134)) (= x158 x40))) (or (= x19 x40) (or (or (= x127 x19) (or (= x71 x19) (= x108 x19))) (= x19 x134)))) (and (or (= x72 x40) (or (= x134 x72) (or (or (= x72 x71) (= x72 x108)) (= x127 x72)))) (and (and (or (or (= x134 x111) (or (= x127 x111) (or (= x111 x71) (= x108 x111)))) (= x40 x111)) (and (or (= x40 x139) (or (= x134 x139) (or (= x127 x139) (or (= x139 x108) (= x139 x71))))) (or (= x123 x40) (or (= x123 x134) (or (= x123 x127) (or (= x123 x108) (= x71 x123))))))) (or (or (= x134 x30) (or (= x127 x30) (or (= x71 x30) (= x108 x30)))) (= x30 x40))))) (and (or (or (or (= x127 x45) (or (= x108 x45) (= x45 x71))) (= x45 x134)) (= x40 x45)) (and (or (= x141 x40) (or (= x134 x141) (or (= x141 x127) (or (= x71 x141) (= x108 x141))))) (and (or (or (= x134 x38) (or (or (= x38 x71) (= x108 x38)) (= x38 x127))) (= x38 x40)) (and (or (or (or (or (= x70 x71) (= x70 x108)) (= x127 x70)) (= x70 x134)) (= x40 x70)) (or (= x40 x2) (or (or (= x2 x127) (or (= x71 x2) (= x2 x108))) (= x134 x2)))))))) (and (and (and (and (or (or (= x134 x49) (or (= x127 x49) (or (= x49 x108) (= x71 x49)))) (= x49 x40)) (or (or (= x134 x23) (or (= x23 x127) (or (= x23 x108) (= x23 x71)))) (= x40 x23))) (or (= x90 x40) (or (= x90 x134) (or (or (= x90 x71) (= x108 x90)) (= x127 x90))))) (or (= x157 x40) (or (or (or (= x157 x71) (= x157 x108)) (= x127 x157)) (= x157 x134)))) (or (= x66 x40) (or (or (= x127 x66) (or (= x66 x108) (= x71 x66))) (= x134 x66))))) (and (and (and (or (or (or (= x127 x54) (or (= x71 x54) (= x108 x54))) (= x134 x54)) (= x40 x54)) (and (or (or (= x134 x8) (or (= x8 x127) (or (= x8 x108) (= x8 x71)))) (= x40 x8)) (or (or (= x134 x55) (or (or (= x55 x108) (= x71 x55)) (= x127 x55))) (= x40 x55)))) (or (= x7 x40) (or (= x134 x7) (or (= x7 x127) (or (= x71 x7) (= x108 x7)))))) (or (= x103 x40) (or (or (or (= x71 x103) (= x103 x108)) (= x103 x127)) (= x134 x103)))))))
(assert (or (and (not (= (x140 x40 x40) x40)) (and (and (not (= x127 (x140 x127 x40))) (and (not (= x108 (x140 x108 x40))) (not (= (x140 x71 x40) x71)))) (not (= x134 (x140 x134 x40))))) (or (or (and (and (and (and (not (= (x140 x71 x127) x71)) (not (= (x140 x108 x127) x108))) (not (= x127 (x140 x127 x127)))) (not (= (x140 x134 x127) x134))) (not (= (x140 x40 x127) x40))) (or (and (and (and (not (= (x140 x127 x108) x127)) (and (not (= x71 (x140 x71 x108))) (not (= x108 (x140 x108 x108))))) (not (= x134 (x140 x134 x108)))) (not (= x40 (x140 x40 x108)))) (and (not (= (x140 x40 x71) x40)) (and (and (not (= (x140 x127 x71) x127)) (and (not (= (x140 x108 x71) x108)) (not (= (x140 x71 x71) x71)))) (not (= x134 (x140 x134 x71))))))) (and (not (= x40 (x140 x40 x134))) (and (and (and (not (= (x140 x71 x134) x71)) (not (= (x140 x108 x134) x108))) (not (= x127 (x140 x127 x134)))) (not (= (x140 x134 x134) x134)))))))
(assert (let ((x55 (x140 x71 x40)) (x11 (x140 x40 x71)) (x99 (x140 x40 x134)) (x31 (x140 x40 x40)) (x19 (x140 x108 x134)) (x123 (x140 x108 x40)) (x9 (x140 x127 x127)) (x30 (x140 x127 x108)) (x136 (x140 x108 x71)) (x66 (x140 x71 x127)) (x92 (x140 x108 x108)) (x8 (x140 x71 x134)) (x158 (x140 x108 x127)) (x72 (x140 x134 x108)) (x156 (x140 x134 x134)) (x104 (x140 x134 x40)) (x95 (x140 x134 x127)) (x76 (x140 x40 x127)) (x159 (x140 x127 x40)) (x111 (x140 x71 x108)) (x2 (x140 x40 x108)) (x69 (x140 x134 x71)) (x157 (x140 x71 x71)) (x17 (x140 x127 x134)) (x103 (x140 x127 x71))) (let ((x22 (= x134 x157)) (x47 (= x40 x17)) (x133 (= x134 x9)) (x75 (= x40 x136)) (x23 (= x136 x108)) (x125 (= x2 x40)) (x94 (= x55 x127)) (x138 (= x108 x66)) (x144 (= x30 x127)) (x118 (= x69 x108)) (x80 (= x55 x134)) (x88 (= x71 x31)) (x150 (= x108 x104)) (x68 (= x159 x127)) (x114 (= x72 x71)) (x60 (= x134 x66)) (x67 (= x134 x17)) (x57 (= x134 x76)) (x13 (= x40 x156)) (x132 (= x127 x104)) (x58 (= x71 x156)) (x81 (= x71 x9)) (x116 (= x40 x8)) (x39 (= x134 x159)) (x98 (= x66 x71)) (x32 (= x17 x71)) (x130 (= x71 x99)) (x89 (= x71 x55)) (x35 (= x8 x127)) (x7 (= x157 x71)) (x102 (= x19 x108)) (x64 (= x159 x108)) (x109 (= x127 x157)) (x86 (= x8 x134)) (x3 (= x69 x134)) (x149 (= x123 x134)) (x73 (= x103 x40)) (x145 (= x108 x95)) (x16 (= x158 x108)) (x128 (= x71 x76)) (x153 (= x17 x108)) (x4 (= x104 x71)) (x151 (= x108 x92)) (x25 (= x11 x71)) (x18 (= x104 x40)) (x62 (= x123 x71)) (x93 (= x108 x31)) (x131 (= x108 x30)) (x65 (= x134 x103)) (x53 (= x11 x40)) (x24 (= x66 x40)) (x100 (= x71 x159)) (x105 (= x127 x158)) (x6 (= x9 x40)) (x117 (= x127 x95)) (x135 (= x156 x127)) (x129 (= x134 x156)) (x45 (= x111 x108)) (x43 (= x134 x19)) (x26 (= x17 x127)) (x49 (= x157 x108)) (x42 (= x76 x108)) (x77 (= x66 x127)) (x120 (= x2 x71)) (x148 (= x103 x108)) (x59 (= x136 x127)) (x12 (= x108 x156)) (x61 (= x69 x127)) (x70 (= x92 x127)) (x83 (= x55 x40)) (x50 (= x158 x40)) (x36 (= x134 x31)) (x38 (= x134 x92)) (x10 (= x19 x127)) (x51 (= x108 x2)) (x56 (= x72 x134)) (x52 (= x127 x11)) (x33 (= x99 x108)) (x54 (= x71 x136)) (x14 (= x108 x8)) (x79 (= x69 x71)) (x152 (= x134 x95)) (x15 (= x127 x111)) (x63 (= x127 x72)) (x46 (= x11 x134)) (x27 (= x95 x40)) (x141 (= x40 x92)) (x143 (= x108 x11)) (x110 (= x40 x72)) (x91 (= x99 x127)) (x119 (= x40 x159)) (x121 (= x134 x2)) (x41 (= x71 x103)) (x96 (= x127 x123)) (x142 (= x30 x71)) (x101 (= x9 x108)) (x21 (= x123 x40)) (x126 (= x158 x71)) (x112 (= x30 x134)) (x139 (= x71 x92)) (x87 (= x55 x108)) (x97 (= x158 x134)) (x122 (= x40 x111)) (x155 (= x108 x123)) (x48 (= x9 x127)) (x37 (= x40 x69)) (x146 (= x71 x95)) (x85 (= x19 x71)) (x107 (= x99 x134)) (x1 (= x40 x31)) (x5 (= x40 x99)) (x74 (= x31 x127)) (x28 (= x134 x111)) (x78 (= x127 x2)) (x44 (= x127 x76)) (x84 (= x134 x104)) (x90 (= x71 x111)) (x147 (= x103 x127)) (x115 (= x157 x40)) (x154 (= x40 x76)) (x113 (= x30 x40)) (x29 (= x108 x72)) (x106 (= x19 x40)) (x20 (= x8 x71)) (x137 (= x136 x134))) (and (and (and (and (and (and (and (or (or (or x112 (or x28 x38)) x56) x121) (or (or (or x97 (or x137 x38)) x43) x149)) (and (and (or (or x10 (or (or x59 x70) x105)) x96) (or (or x63 (or (or x70 x15) x144)) x78)) (and (and (or x62 (or x85 (or (or x139 x54) x126))) (or (or (or (or x139 x90) x142) x114) x120)) (and (or (or x29 (or x131 (or x45 x151))) x51) (or (or x102 (or (or x23 x151) x16)) x155))))) (and (or (or (or x50 (or x141 x75)) x106) x21) (or (or x110 (or (or x122 x141) x113)) x125))) (and (and (or (or x116 (or x24 (or x115 x122))) x83) (or (or (or (or x75 x115) x73) x37) x53)) (and (and (and (or (or x61 (or (or x109 x59) x147)) x52) (or (or (or (or x109 x15) x77) x35) x94)) (and (and (or (or (or x148 (or x23 x49)) x118) x143) (or (or (or x138 (or x45 x49)) x14) x87)) (and (or x89 (or x20 (or x98 (or x7 x90)))) (or x25 (or (or x41 (or x7 x54)) x79))))) (and (or x80 (or x86 (or (or x28 x22) x60))) (or x46 (or (or (or x22 x137) x65) x3)))))) (and (and (or (or (or x6 (or x24 x50)) x27) x154) (or (or x47 (or (or x73 x113) x6)) x119)) (and (and (and (and (or (or x146 (or (or x126 x98) x81)) x128) (or (or (or x81 (or x142 x41)) x32) x100)) (and (or x42 (or (or (or x16 x138) x101) x145)) (or (or (or (or x148 x131) x101) x153) x64))) (and (or x68 (or (or (or x147 x144) x48) x26)) (or (or x117 (or (or x105 x77) x48)) x44))) (and (or (or (or (or x97 x60) x133) x152) x57) (or (or (or x133 (or x112 x65)) x67) x39))))) (and (and (or (or (or x27 (or x37 x110)) x13) x18) (or x5 (or x13 (or (or x106 x116) x47)))) (and (and (and (or x132 (or x135 (or x117 (or x61 x63)))) (or (or (or x26 (or x10 x35)) x135) x91)) (and (and (or x4 (or x58 (or (or x114 x79) x146))) (or (or x58 (or x32 (or x20 x85))) x130)) (and (or x150 (or x12 (or x145 (or x29 x118)))) (or x33 (or (or x153 (or x102 x14)) x12))))) (and (or (or (or x152 (or x3 x56)) x129) x84) (or x107 (or x129 (or x67 (or x43 x86)))))))) (and (and (or x1 (or (or (or x83 x21) x119) x18)) (or x1 (or x5 (or (or x125 x53) x154)))) (and (and (or (or (or (or x121 x46) x57) x107) x36) (or x36 (or x84 (or (or x149 x80) x39)))) (and (and (or x74 (or (or (or x94 x96) x68) x132)) (or (or (or (or x52 x78) x44) x91) x74)) (and (and (or x93 (or (or (or x155 x87) x64) x150)) (or x93 (or (or x42 (or x143 x51)) x33))) (and (or (or (or (or x89 x62) x100) x4) x88) (or (or x130 (or x128 (or x120 x25))) x88))))))))))
(assert (let ((x158 (x140 x134 x134)) (x19 (x140 x40 x40)) (x136 (x140 x127 x127)) (x92 (x140 x71 x71)) (x151 (x140 x108 x108))) (or (and (not (= x40 x19)) (and (not (= x158 x40)) (and (and (not (= x151 x40)) (not (= x40 x92))) (not (= x40 x136))))) (or (or (and (not (= x127 x19)) (and (and (and (not (= x127 x151)) (not (= x92 x127))) (not (= x127 x136))) (not (= x127 x158)))) (or (and (not (= x19 x71)) (and (and (not (= x136 x71)) (and (not (= x92 x71)) (not (= x71 x151)))) (not (= x158 x71)))) (and (and (and (not (= x108 x136)) (and (not (= x108 x151)) (not (= x92 x108)))) (not (= x158 x108))) (not (= x108 x19))))) (and (not (= x134 x19)) (and (not (= x158 x134)) (and (not (= x134 x136)) (and (not (= x151 x134)) (not (= x134 x92))))))))))
(assert (not (and (and (and (= (x140 x40 x127) x134) (and (= x71 (x140 x40 x71)) (and (and (and (and (= (x140 x134 x127) x71) (and (= (x140 x134 x71) x40) (and (and (and (and (and (and (= x108 (x140 x127 x108)) (and (= x71 (x140 x71 x40)) (and (and (= (x140 x71 x127) x108) (and (= (x140 x71 x71) x127) (and (and (and (and (= x127 (x140 x108 x127)) (and (= x71 (x140 x108 x108)) (= x108 (x140 x108 x71)))) (= (x140 x108 x134) x134)) (= (x140 x108 x40) x40)) (= x134 (x140 x71 x108))))) (= x40 (x140 x71 x134))))) (= x134 (x140 x127 x71))) (= x40 (x140 x127 x127))) (= (x140 x127 x134) x71)) (= x127 (x140 x127 x40))) (= x127 (x140 x134 x108))))) (= (x140 x134 x134) x108)) (= (x140 x134 x40) x134)) (= (x140 x40 x108) x40)))) (= x127 (x140 x40 x134))) (= (x140 x40 x40) x108))))
(assert (and (and (and (or (= x127 (x140 x40 (x140 x127 x40))) (or (or (or (= (x140 x108 (x140 x127 x108)) x127) (= (x140 x71 (x140 x127 x71)) x127)) (= x127 (x140 x127 (x140 x127 x127)))) (= x127 (x140 x134 (x140 x127 x134))))) (and (or (or (= x108 (x140 x134 (x140 x108 x134))) (or (= (x140 x127 (x140 x108 x127)) x108) (or (= x108 (x140 x71 (x140 x108 x71))) (= x108 (x140 x108 (x140 x108 x108)))))) (= x108 (x140 x40 (x140 x108 x40)))) (or (or (or (= (x140 x127 (x140 x71 x127)) x71) (or (= (x140 x108 (x140 x71 x108)) x71) (= (x140 x71 (x140 x71 x71)) x71))) (= (x140 x134 (x140 x71 x134)) x71)) (= x71 (x140 x40 (x140 x71 x40)))))) (or (= (x140 x40 (x140 x134 x40)) x134) (or (= x134 (x140 x134 (x140 x134 x134))) (or (or (= (x140 x108 (x140 x134 x108)) x134) (= (x140 x71 (x140 x134 x71)) x134)) (= (x140 x127 (x140 x134 x127)) x134))))) (or (or (or (= (x140 x127 (x140 x40 x127)) x40) (or (= x40 (x140 x108 (x140 x40 x108))) (= (x140 x71 (x140 x40 x71)) x40))) (= x40 (x140 x134 (x140 x40 x134)))) (= x40 (x140 x40 (x140 x40 x40))))))
(assert (let ((x19 (not (= (x140 x127 x108) x127))) (x103 (not (= (x140 x40 x40) x40))) (x49 (not (= x40 (x140 x40 x108)))) (x92 (not (= x71 (x140 x71 x108)))) (x8 (not (= x40 (x140 x40 x127)))) (x151 (not (= (x140 x108 x108) x108))) (x54 (not (= (x140 x40 x134) x40))) (x139 (not (= x127 (x140 x127 x71)))) (x157 (not (= x40 (x140 x40 x71)))) (x23 (not (= (x140 x134 x134) x134))) (x136 (not (= (x140 x108 x71) x108))) (x141 (not (= x134 (x140 x134 x127)))) (x70 (not (= x134 (x140 x134 x71)))) (x72 (not (= (x140 x134 x108) x134))) (x45 (not (= x127 (x140 x127 x134)))) (x111 (not (= (x140 x71 x127) x71))) (x7 (not (= x134 (x140 x134 x40)))) (x38 (not (= (x140 x71 x134) x71))) (x123 (not (= x108 (x140 x108 x127)))) (x30 (not (= (x140 x127 x127) x127))) (x158 (not (= x71 (x140 x71 x71)))) (x90 (not (= x108 (x140 x108 x40)))) (x55 (not (= x127 (x140 x127 x40)))) (x2 (not (= x108 (x140 x108 x134)))) (x66 (not (= (x140 x71 x40) x71)))) (and (and (and (and (or x55 x8) (and (or x49 x90) (or x66 x157))) (or x54 x7)) (or x103 x103)) (and (and (and (and (and (and (and (or x158 x158) (or x136 x92)) (or x111 x139)) (or x70 x38)) (or x157 x66)) (and (and (or x72 x2) (and (and (or x136 x92) (or x151 x151)) (or x123 x19))) (or x49 x90))) (and (or x55 x8) (and (and (and (or x139 x111) (or x123 x19)) (or x30 x30)) (or x45 x141)))) (and (and (or x23 x23) (and (and (or x70 x38) (or x2 x72)) (or x45 x141))) (or x7 x54))))))
(assert (and (and (and (= (x140 x71 x71) x127) (= x108 (x140 x40 x40))) (= x134 (x140 x71 x108))) (= x40 (x140 x127 x127))))
(assert (not (and (= (x140 x40 x40) x108) (and (and (and (= (x140 x40 x71) x71) (and (and (= (x140 x134 x40) x71) (and (and (= x134 (x140 x134 x127)) (and (= x108 (x140 x134 x71)) (and (= (x140 x134 x108) x127) (and (= x127 (x140 x127 x40)) (and (= (x140 x127 x134) x71) (and (= x40 (x140 x127 x127)) (and (and (= x108 (x140 x127 x108)) (and (and (and (and (and (= x134 (x140 x71 x108)) (and (= x134 (x140 x108 x40)) (and (and (= (x140 x108 x127) x108) (and (= (x140 x108 x108) x71) (= x40 (x140 x108 x71)))) (= x127 (x140 x108 x134))))) (= (x140 x71 x71) x127)) (= (x140 x71 x127) x71)) (= (x140 x71 x134) x108)) (= (x140 x71 x40) x40))) (= x134 (x140 x127 x71))))))))) (= (x140 x134 x134) x40))) (= x40 (x140 x40 x108)))) (= x127 (x140 x40 x127))) (= (x140 x40 x134) x134)))))
(assert (let ((x92 (x140 x108 x71)) (x136 (x140 x108 x127)) (x55 (x140 x40 x71)) (x19 (x140 x108 x40)) (x38 (x140 x127 x127)) (x66 (x140 x134 x40)) (x158 (x140 x108 x134)) (x151 (x140 x108 x108)) (x90 (x140 x134 x127)) (x103 (x140 x40 x40)) (x30 (x140 x71 x134)) (x70 (x140 x127 x71)) (x72 (x140 x71 x40)) (x54 (x140 x40 x127)) (x157 (x140 x134 x134)) (x2 (x140 x127 x108)) (x45 (x140 x127 x40)) (x8 (x140 x40 x108)) (x139 (x140 x71 x71)) (x23 (x140 x134 x108)) (x7 (x140 x40 x134)) (x141 (x140 x127 x134)) (x111 (x140 x71 x127)) (x123 (x140 x71 x108)) (x49 (x140 x134 x71))) (and (or (= (x140 x103 x103) x40) (or (or (= (x140 x54 x54) x127) (or (= (x140 x8 x8) x108) (= (x140 x55 x55) x71))) (= (x140 x7 x7) x134))) (and (and (and (or (= (x140 x19 x19) x40) (or (or (or (= x71 (x140 x92 x92)) (= x108 (x140 x151 x151))) (= x127 (x140 x136 x136))) (= x134 (x140 x158 x158)))) (or (or (or (= x127 (x140 x111 x111)) (or (= (x140 x139 x139) x71) (= (x140 x123 x123) x108))) (= x134 (x140 x30 x30))) (= x40 (x140 x72 x72)))) (or (or (= x134 (x140 x141 x141)) (or (= (x140 x38 x38) x127) (or (= x71 (x140 x70 x70)) (= x108 (x140 x2 x2))))) (= (x140 x45 x45) x40))) (or (= (x140 x66 x66) x40) (or (= x134 (x140 x157 x157)) (or (or (= x108 (x140 x23 x23)) (= x71 (x140 x49 x49))) (= x127 (x140 x90 x90)))))))))
(assert (let ((x92 (x140 x71 x71)) (x136 (x140 x127 x127)) (x158 (x140 x134 x134)) (x19 (x140 x40 x40)) (x151 (x140 x108 x108))) (and (not (= (x140 x19 x19) x40)) (and (not (= (x140 x158 x158) x134)) (and (and (not (= x108 (x140 x151 x151))) (not (= x71 (x140 x92 x92)))) (not (= (x140 x136 x136) x127)))))))
(assert (let ((x38 (x140 x127 x127)) (x30 (x140 x134 x71)) (x7 (x140 x134 x40)) (x72 (x140 x40 x71)) (x158 (x140 x134 x108)) (x111 (x140 x127 x71)) (x49 (x140 x71 x134)) (x136 (x140 x127 x108)) (x8 (x140 x108 x40)) (x66 (x140 x40 x134)) (x90 (x140 x127 x134)) (x92 (x140 x71 x108)) (x45 (x140 x40 x127)) (x23 (x140 x108 x134)) (x157 (x140 x134 x134)) (x54 (x140 x127 x40)) (x19 (x140 x40 x108)) (x151 (x140 x108 x108)) (x103 (x140 x40 x40)) (x55 (x140 x71 x40)) (x139 (x140 x71 x71)) (x123 (x140 x108 x71)) (x70 (x140 x71 x127)) (x141 (x140 x134 x127)) (x2 (x140 x108 x127))) (and (and (and (and (not (= x157 x7)) (and (and (and (not (= x30 x7)) (and (not (= x30 x157)) (and (not (= x30 x141)) (and (and (not (= x158 x157)) (and (not (= x30 x158)) (not (= x141 x158)))) (not (= x158 x7)))))) (not (= x157 x141))) (not (= x7 x141)))) (and (and (and (not (= x23 x8)) (and (not (= x2 x8)) (and (not (= x2 x23)) (and (and (not (= x23 x123)) (and (and (not (= x151 x8)) (and (not (= x151 x23)) (and (not (= x2 x151)) (not (= x151 x123))))) (not (= x2 x123)))) (not (= x123 x8)))))) (and (not (= x55 x49)) (and (and (and (not (= x139 x55)) (and (not (= x49 x139)) (and (not (= x70 x139)) (and (not (= x55 x92)) (and (not (= x49 x92)) (and (not (= x92 x70)) (not (= x92 x139)))))))) (not (= x49 x70))) (not (= x55 x70))))) (and (and (not (= x38 x54)) (and (and (not (= x54 x111)) (and (and (not (= x111 x38)) (and (not (= x136 x54)) (and (and (not (= x111 x136)) (not (= x38 x136))) (not (= x90 x136))))) (not (= x90 x111)))) (not (= x90 x38)))) (not (= x54 x90))))) (and (not (= x66 x103)) (and (not (= x103 x45)) (and (not (= x45 x66)) (and (and (not (= x72 x66)) (and (and (not (= x103 x19)) (and (not (= x19 x66)) (and (not (= x19 x45)) (not (= x19 x72))))) (not (= x45 x72)))) (not (= x72 x103))))))) (and (and (not (= x103 x7)) (and (not (= x103 x54)) (and (not (= x54 x7)) (and (not (= x55 x103)) (and (and (and (not (= x103 x8)) (and (and (not (= x55 x8)) (not (= x54 x8))) (not (= x8 x7)))) (not (= x54 x55))) (not (= x55 x7))))))) (and (and (and (not (= x141 x45)) (and (and (not (= x38 x141)) (and (and (not (= x141 x70)) (and (and (not (= x45 x2)) (and (not (= x141 x2)) (and (not (= x38 x2)) (not (= x70 x2))))) (not (= x70 x38)))) (not (= x70 x45)))) (not (= x38 x45)))) (and (and (not (= x72 x30)) (and (and (and (not (= x139 x72)) (and (not (= x139 x30)) (and (not (= x111 x139)) (and (not (= x72 x123)) (and (and (not (= x139 x123)) (not (= x123 x111))) (not (= x123 x30))))))) (not (= x30 x111))) (not (= x72 x111)))) (and (not (= x158 x19)) (and (and (not (= x136 x158)) (and (and (not (= x158 x92)) (and (and (and (and (not (= x92 x151)) (not (= x136 x151))) (not (= x158 x151))) (not (= x151 x19))) (not (= x92 x136)))) (not (= x19 x92)))) (not (= x136 x19)))))) (and (not (= x157 x66)) (and (not (= x66 x90)) (and (not (= x157 x90)) (and (not (= x66 x49)) (and (and (and (and (not (= x23 x157)) (and (not (= x23 x90)) (not (= x23 x49)))) (not (= x23 x66))) (not (= x49 x90))) (not (= x157 x49))))))))))))
(assert (or (or (and (not (= (x140 x134 (x140 x134 x40)) x40)) (and (and (not (= x127 (x140 x134 (x140 x134 x127)))) (and (not (= x108 (x140 x134 (x140 x134 x108)))) (not (= x71 (x140 x134 (x140 x134 x71)))))) (not (= (x140 x134 (x140 x134 x134)) x134)))) (or (or (and (not (= (x140 x71 (x140 x71 x40)) x40)) (and (not (= x134 (x140 x71 (x140 x71 x134)))) (and (not (= x127 (x140 x71 (x140 x71 x127)))) (and (not (= x108 (x140 x71 (x140 x71 x108)))) (not (= x71 (x140 x71 (x140 x71 x71)))))))) (and (not (= (x140 x108 (x140 x108 x40)) x40)) (and (not (= x134 (x140 x108 (x140 x108 x134)))) (and (and (not (= x108 (x140 x108 (x140 x108 x108)))) (not (= (x140 x108 (x140 x108 x71)) x71))) (not (= (x140 x108 (x140 x108 x127)) x127)))))) (and (not (= x40 (x140 x127 (x140 x127 x40)))) (and (not (= (x140 x127 (x140 x127 x134)) x134)) (and (not (= x127 (x140 x127 (x140 x127 x127)))) (and (not (= x71 (x140 x127 (x140 x127 x71)))) (not (= (x140 x127 (x140 x127 x108)) x108)))))))) (and (not (= x40 (x140 x40 (x140 x40 x40)))) (and (and (and (not (= (x140 x40 (x140 x40 x71)) x71)) (not (= (x140 x40 (x140 x40 x108)) x108))) (not (= (x140 x40 (x140 x40 x127)) x127))) (not (= (x140 x40 (x140 x40 x134)) x134))))))
(assert (or (and (not (= x40 (x140 (x140 x40 x40) x40))) (and (and (and (not (= (x140 (x140 x40 x71) x40) x71)) (not (= x108 (x140 (x140 x40 x108) x40)))) (not (= x127 (x140 (x140 x40 x127) x40)))) (not (= x134 (x140 (x140 x40 x134) x40))))) (or (and (and (and (and (not (= x71 (x140 (x140 x134 x71) x134))) (not (= (x140 (x140 x134 x108) x134) x108))) (not (= x127 (x140 (x140 x134 x127) x134)))) (not (= (x140 (x140 x134 x134) x134) x134))) (not (= (x140 (x140 x134 x40) x134) x40))) (or (and (and (and (and (not (= x108 (x140 (x140 x127 x108) x127))) (not (= x71 (x140 (x140 x127 x71) x127)))) (not (= (x140 (x140 x127 x127) x127) x127))) (not (= x134 (x140 (x140 x127 x134) x127)))) (not (= x40 (x140 (x140 x127 x40) x127)))) (or (and (and (and (and (not (= (x140 (x140 x108 x71) x108) x71)) (not (= x108 (x140 (x140 x108 x108) x108)))) (not (= (x140 (x140 x108 x127) x108) x127))) (not (= (x140 (x140 x108 x134) x108) x134))) (not (= x40 (x140 (x140 x108 x40) x108)))) (and (and (not (= (x140 (x140 x71 x134) x71) x134)) (and (and (not (= x71 (x140 (x140 x71 x71) x71))) (not (= (x140 (x140 x71 x108) x71) x108))) (not (= (x140 (x140 x71 x127) x71) x127)))) (not (= (x140 (x140 x71 x40) x71) x40))))))))
(assert (let ((x148 (x140 x71 x71)) (x41 (x140 x134 x71)) (x147 (x140 x134 x127)) (x15 (x140 x108 x71)) (x69 (x140 x108 x108)) (x24 (x140 x40 x134)) (x28 (x140 x127 x108)) (x142 (x140 x71 x134)) (x144 (x140 x127 x134)) (x75 (x140 x40 x108)) (x105 (x140 x127 x40)) (x9 (x140 x71 x40)) (x77 (x140 x40 x127)) (x95 (x140 x127 x127)) (x114 (x140 x40 x40)) (x50 (x140 x134 x40)) (x109 (x140 x108 x127)) (x138 (x140 x71 x127)) (x113 (x140 x134 x134)) (x101 (x140 x127 x71)) (x137 (x140 x108 x134)) (x59 (x140 x71 x108)) (x17 (x140 x40 x71)) (x122 (x140 x108 x40)) (x22 (x140 x134 x108))) (let ((x19 (not (= x108 x28))) (x38 (not (= x108 x142))) (x125 (not (= x75 x40))) (x81 (not (= x71 x138))) (x115 (not (= x59 x71))) (x67 (not (= x127 x77))) (x92 (not (= x59 x108))) (x54 (not (= x108 x24))) (x141 (not (= x147 x108))) (x64 (not (= x137 x134))) (x16 (not (= x148 x71))) (x27 (not (= x127 x114))) (x100 (not (= x77 x134))) (x29 (not (= x71 x122))) (x8 (not (= x77 x108))) (x133 (not (= x144 x71))) (x48 (not (= x71 x22))) (x55 (not (= x105 x108))) (x99 (not (= x138 x127))) (x11 (not (= x71 x69))) (x152 (not (= x127 x122))) (x26 (not (= x127 x147))) (x143 (not (= x109 x134))) (x13 (not (= x148 x134))) (x119 (not (= x24 x40))) (x70 (not (= x41 x108))) (x73 (not (= x71 x113))) (x20 (not (= x28 x127))) (x63 (not (= x95 x127))) (x120 (not (= x147 x134))) (x44 (not (= x69 x40))) (x111 (not (= x138 x108))) (x151 (not (= x69 x108))) (x49 (not (= x108 x75))) (x10 (not (= x41 x127))) (x86 (not (= x127 x9))) (x129 (not (= x127 x105))) (x60 (not (= x71 x147))) (x146 (not (= x69 x127))) (x94 (not (= x148 x40))) (x156 (not (= x59 x127))) (x106 (not (= x69 x134))) (x2 (not (= x108 x137))) (x117 (not (= x137 x127))) (x62 (not (= x134 x17))) (x57 (not (= x22 x40))) (x30 (not (= x95 x108))) (x89 (not (= x134 x9))) (x118 (not (= x17 x71))) (x79 (not (= x114 x71))) (x104 (not (= x127 x15))) (x78 (not (= x50 x134))) (x53 (not (= x122 x40))) (x33 (not (= x138 x134))) (x103 (not (= x108 x114))) (x37 (not (= x50 x127))) (x132 (not (= x109 x40))) (x56 (not (= x127 x113))) (x65 (not (= x41 x71))) (x58 (not (= x127 x101))) (x6 (not (= x71 x75))) (x97 (not (= x71 x142))) (x42 (not (= x134 x101))) (x91 (not (= x40 x59))) (x3 (not (= x127 x75))) (x98 (not (= x101 x71))) (x157 (not (= x108 x17))) (x107 (not (= x137 x40))) (x23 (not (= x108 x113))) (x85 (not (= x127 x148))) (x5 (not (= x40 x9))) (x155 (not (= x134 x95))) (x121 (not (= x40 x138))) (x74 (not (= x101 x40))) (x149 (not (= x41 x40))) (x1 (not (= x40 x114))) (x96 (not (= x40 x15))) (x52 (not (= x134 x114))) (x123 (not (= x109 x108))) (x88 (not (= x134 x24))) (x87 (not (= x22 x134))) (x25 (not (= x134 x144))) (x154 (not (= x17 x40))) (x110 (not (= x24 x127))) (x68 (not (= x40 x28))) (x130 (not (= x75 x134))) (x14 (not (= x71 x105))) (x93 (not (= x142 x134))) (x83 (not (= x105 x40))) (x76 (not (= x71 x95))) (x47 (not (= x134 x15))) (x145 (not (= x71 x9))) (x90 (not (= x108 x122))) (x32 (not (= x109 x127))) (x43 (not (= x127 x17))) (x126 (not (= x109 x71))) (x112 (not (= x137 x71))) (x128 (not (= x113 x134))) (x21 (not (= x40 x77))) (x45 (not (= x144 x108))) (x153 (not (= x24 x71))) (x135 (not (= x127 x144))) (x159 (not (= x28 x71))) (x61 (not (= x127 x22))) (x39 (not (= x147 x40))) (x31 (not (= x122 x134))) (x72 (not (= x108 x22))) (x7 (not (= x108 x50))) (x150 (not (= x134 x41))) (x46 (not (= x40 x95))) (x102 (not (= x71 x77))) (x80 (not (= x142 x40))) (x66 (not (= x108 x9))) (x131 (not (= x71 x15))) (x35 (not (= x142 x127))) (x136 (not (= x108 x15))) (x4 (not (= x105 x134))) (x12 (not (= x71 x50))) (x139 (not (= x108 x101))) (x158 (not (= x108 x148))) (x36 (not (= x40 x113))) (x18 (not (= x50 x40))) (x51 (not (= x134 x28))) (x84 (not (= x144 x40))) (x116 (not (= x134 x59)))) (or (and (and (and (or x119 x18) (and (or x21 x83) (and (or x125 x53) (or x5 x154)))) (or x1 x1)) (and (and (and (and (or x84 x39) (and (and (or x68 x132) (or x74 x121)) (or x46 x46))) (or x21 x83)) (and (and (or x125 x53) (and (and (and (or x44 x44) (or x96 x91)) (or x68 x132)) (or x57 x107))) (and (or x5 x154) (and (or x80 x149) (and (and (or x91 x96) (or x94 x94)) (or x121 x74)))))) (and (or x119 x18) (and (or x36 x36) (and (and (or x80 x149) (or x107 x57)) (or x39 x84)))))) (or (or (or (and (and (and (or x7 x54) (and (and (or x141 x45) (and (or x70 x38) (or x2 x72))) (or x23 x23))) (and (and (and (or x90 x49) (and (and (and (or x151 x151) (or x92 x136)) (or x19 x123)) (or x72 x2))) (and (and (and (or x139 x111) (and (or x158 x158) (or x136 x92))) (or x38 x70)) (or x157 x66))) (and (and (or x141 x45) (and (and (or x139 x111) (or x19 x123)) (or x30 x30))) (or x55 x8)))) (and (or x103 x103) (and (and (or x55 x8) (and (or x49 x90) (or x157 x66))) (or x7 x54)))) (and (and (and (and (and (and (or x48 x112) (and (and (or x11 x11) (or x115 x131)) (or x126 x159))) (or x29 x6)) (and (and (and (and (or x16 x16) (or x131 x115)) (or x98 x81)) (or x97 x65)) (or x118 x145))) (and (or x102 x14) (and (and (or x76 x76) (and (or x159 x126) (or x98 x81))) (or x60 x133)))) (and (or x12 x153) (and (and (or x60 x133) (and (or x97 x65) (or x48 x112))) (or x73 x73)))) (and (or x79 x79) (and (and (or x102 x14) (and (or x118 x145) (or x6 x29))) (or x12 x153))))) (and (and (and (or x110 x37) (and (or x129 x67) (and (or x152 x3) (or x43 x86)))) (or x27 x27)) (and (and (and (or x129 x67) (and (and (and (or x99 x58) (or x20 x32)) (or x63 x63)) (or x135 x26))) (and (and (or x3 x152) (and (and (or x32 x20) (and (or x156 x104) (or x146 x146))) (or x117 x61))) (and (or x86 x43) (and (or x35 x10) (and (and (or x85 x85) (or x156 x104)) (or x99 x58)))))) (and (or x110 x37) (and (and (and (or x117 x61) (or x35 x10)) (or x26 x135)) (or x56 x56)))))) (and (and (and (or x88 x78) (and (or x128 x128) (and (or x25 x120) (and (or x93 x150) (or x64 x87))))) (and (and (and (and (or x150 x93) (and (and (or x116 x47) (or x13 x13)) (or x33 x42))) (or x89 x62)) (and (and (or x87 x64) (and (and (or x47 x116) (or x106 x106)) (or x51 x143))) (or x130 x31))) (and (or x100 x4) (and (or x120 x25) (and (or x155 x155) (and (or x143 x51) (or x42 x33))))))) (and (and (and (or x4 x100) (and (or x89 x62) (or x31 x130))) (or x78 x88)) (or x52 x52))))))))
(assert (or (and (and (not (= x134 (x140 (x140 x134 x40) x40))) (and (not (= (x140 (x140 x127 x40) x40) x127)) (and (not (= (x140 (x140 x71 x40) x40) x71)) (not (= x108 (x140 (x140 x108 x40) x40)))))) (not (= x40 (x140 (x140 x40 x40) x40)))) (or (and (not (= (x140 (x140 x40 x134) x134) x40)) (and (and (not (= (x140 (x140 x127 x134) x134) x127)) (and (not (= x108 (x140 (x140 x108 x134) x134))) (not (= x71 (x140 (x140 x71 x134) x134))))) (not (= x134 (x140 (x140 x134 x134) x134))))) (or (or (and (and (and (and (not (= (x140 (x140 x71 x108) x108) x71)) (not (= (x140 (x140 x108 x108) x108) x108))) (not (= (x140 (x140 x127 x108) x108) x127))) (not (= x134 (x140 (x140 x134 x108) x108)))) (not (= (x140 (x140 x40 x108) x108) x40))) (and (not (= x40 (x140 (x140 x40 x71) x71))) (and (not (= x134 (x140 (x140 x134 x71) x71))) (and (not (= (x140 (x140 x127 x71) x71) x127)) (and (not (= x108 (x140 (x140 x108 x71) x71))) (not (= (x140 (x140 x71 x71) x71) x71))))))) (and (and (not (= (x140 (x140 x134 x127) x127) x134)) (and (and (not (= (x140 (x140 x108 x127) x127) x108)) (not (= x71 (x140 (x140 x71 x127) x127)))) (not (= x127 (x140 (x140 x127 x127) x127))))) (not (= x40 (x140 (x140 x40 x127) x127))))))))
(assert (not (and (and (and (= x134 (x140 x40 x127)) (and (and (and (= x71 (x140 x134 x40)) (and (and (and (= (x140 x134 x71) x134) (and (and (= x127 (x140 x127 x40)) (and (= x134 (x140 x127 x134)) (and (= (x140 x127 x127) x40) (and (and (= (x140 x127 x108) x108) (and (and (and (= (x140 x71 x127) x71) (and (= (x140 x71 x71) x127) (and (and (= x134 (x140 x108 x40)) (and (and (= (x140 x108 x127) x127) (and (= x108 (x140 x108 x71)) (= (x140 x108 x108) x71))) (= (x140 x108 x134) x40))) (= (x140 x71 x108) x134)))) (= x108 (x140 x71 x134))) (= (x140 x71 x40) x40))) (= (x140 x127 x71) x71))))) (= (x140 x134 x108) x40))) (= x108 (x140 x134 x127))) (= (x140 x134 x134) x127))) (= x127 (x140 x40 x108))) (= x40 (x140 x40 x71)))) (= x71 (x140 x40 x134))) (= (x140 x40 x40) x108))))
(assert (and (and (and (not (= x127 (x140 x127 x127))) (and (not (= (x140 x108 x108) x108)) (not (= x71 (x140 x71 x71))))) (not (= (x140 x134 x134) x134))) (not (= x40 (x140 x40 x40)))))
(check-sat)
(exit)
